c User generated cnf file
p cnf 14 59
3 13 -7 0 
1 -5 13 0 
1 -13 1 0 
4 -7 5 0 
11 10 -9 0 
2 9 -6 0 
14 6 -4 0 
6 8 -1 0 
12 -11 14 0 
10 -6 8 0 
1 -2 14 0 
14 -2 8 0 
7 -14 1 0 
11 -11 2 0 
4 -11 10 0 
1 -14 7 0 
10 13 -12 0 
9 -11 10 0 
6 -1 8 0 
2 13 -7 0 
2 -2 8 0 
5 -2 11 0 
3 3 -14 0 
14 2 -2 0 
1 2 -2 0 
2 -4 12 0 
7 7 -4 0 
10 8 -8 0 
13 11 -13 0 
3 7 -5 0 
4 10 -6 0 
7 1 -14 0 
2 -2 9 0 
10 -2 13 0 
5 11 -1 0 
10 9 -9 0 
10 -12 14 0 
2 4 -11 0 
6 -14 2 0 
3 2 -3 0 
9 -12 1 0 
9 11 -2 0 
1 -10 8 0 
11 6 -1 0 
3 6 -10 0 
3 5 -12 0 
6 4 -9 0 
7 14 -10 0 
3 8 -7 0 
10 -10 5 0 
3 12 -7 0 
14 -3 4 0 
12 5 -3 0 
9 3 -9 0 
1 -7 9 0 
1 -7 6 0 
5 13 -6 0 
2 2 -10 0 
10 -12 9 0 
